NAME          DCAP_2_4_3_500_SS203
ROWS
 N  OBJ
 L  CON1
 L  CON2
 L  CON3
 L  CON4
 L  CON5
 L  CON6
 L  CON7
 L  CON8
 L  CON9
 L  CON10
 L  CON11
 L  CON12
 E  CON13
 E  CON14
 E  CON15
 E  CON16
 E  CON17
 E  CON18
 E  CON19
 E  CON20
 E  CON21
 E  CON22
 E  CON23
 E  CON24
COLUMNS
    x[1,1]    OBJ       6.180167      CON1      1.000000    
    x[1,1]    CON7      -1.000000     CON8      -1.000000   
    x[1,1]    CON9      -1.000000   
    x[1,2]    OBJ       6.563535      CON2      1.000000    
    x[1,2]    CON8      -1.000000     CON9      -1.000000   
    x[1,3]    OBJ       7.443064      CON3      1.000000    
    x[1,3]    CON9      -1.000000   
    x[2,1]    OBJ       6.732585      CON4      1.000000    
    x[2,1]    CON10     -1.000000     CON11     -1.000000   
    x[2,1]    CON12     -1.000000   
    x[2,2]    OBJ       5.039546      CON5      1.000000    
    x[2,2]    CON11     -1.000000     CON12     -1.000000   
    x[2,3]    OBJ       6.054841      CON6      1.000000    
    x[2,3]    CON12     -1.000000   
    MARKER    'MARKER'                'INTORG'
    u[1,1]    OBJ       48.076654     CON1      -1.000000   
    u[1,2]    OBJ       20.066487     CON2      -1.000000   
    u[1,3]    OBJ       32.230043     CON3      -1.000000   
    u[2,1]    OBJ       49.996186     CON4      -1.000000   
    u[2,2]    OBJ       49.466655     CON5      -1.000000   
    u[2,3]    OBJ       27.484319     CON6      -1.000000   
    y[1,1,1]  OBJ       7.193978      CON7      0.607787    
    y[1,1,1]  CON13     1.000000    
    y[1,1,2]  OBJ       9.481962      CON8      1.413597    
    y[1,1,2]  CON14     1.000000    
    y[1,1,3]  OBJ       8.378312      CON9      1.195690    
    y[1,1,3]  CON15     1.000000    
    y[1,2,1]  OBJ       9.457889      CON7      0.878980    
    y[1,2,1]  CON16     1.000000    
    y[1,2,2]  OBJ       9.339507      CON8      0.974458    
    y[1,2,2]  CON17     1.000000    
    y[1,2,3]  OBJ       5.503674      CON9      0.809992    
    y[1,2,3]  CON18     1.000000    
    y[1,3,1]  OBJ       5.088760      CON7      0.868148    
    y[1,3,1]  CON19     1.000000    
    y[1,3,2]  OBJ       8.381238      CON8      0.720264    
    y[1,3,2]  CON20     1.000000    
    y[1,3,3]  OBJ       5.259270      CON9      1.291558    
    y[1,3,3]  CON21     1.000000    
    y[1,4,1]  OBJ       9.687026      CON7      0.884205    
    y[1,4,1]  CON22     1.000000    
    y[1,4,2]  OBJ       6.941104      CON8      0.745875    
    y[1,4,2]  CON23     1.000000    
    y[1,4,3]  OBJ       9.842275      CON9      0.677674    
    y[1,4,3]  CON24     1.000000    
    y[2,1,1]  OBJ       9.308662      CON10     0.607787    
    y[2,1,1]  CON13     1.000000    
    y[2,1,2]  OBJ       5.253837      CON11     1.413597    
    y[2,1,2]  CON14     1.000000    
    y[2,1,3]  OBJ       7.969746      CON12     1.195690    
    y[2,1,3]  CON15     1.000000    
    y[2,2,1]  OBJ       6.497751      CON10     0.878980    
    y[2,2,1]  CON16     1.000000    
    y[2,2,2]  OBJ       7.930307      CON11     0.974458    
    y[2,2,2]  CON17     1.000000    
    y[2,2,3]  OBJ       7.976913      CON12     0.809992    
    y[2,2,3]  CON18     1.000000    
    y[2,3,1]  OBJ       9.770457      CON10     0.868148    
    y[2,3,1]  CON19     1.000000    
    y[2,3,2]  OBJ       6.500869      CON11     0.720264    
    y[2,3,2]  CON20     1.000000    
    y[2,3,3]  OBJ       7.393649      CON12     1.291558    
    y[2,3,3]  CON21     1.000000    
    y[2,4,1]  OBJ       6.062927      CON10     0.884205    
    y[2,4,1]  CON22     1.000000    
    y[2,4,2]  OBJ       7.993029      CON11     0.745875    
    y[2,4,2]  CON23     1.000000    
    y[2,4,3]  OBJ       8.493425      CON12     0.677674    
    y[2,4,3]  CON24     1.000000    
    z[1,1]    OBJ       507.530146    CON13     1.000000    
    z[1,2]    OBJ       928.204135    CON14     1.000000    
    z[1,3]    OBJ       788.070507    CON15     1.000000    
    z[2,1]    OBJ       944.180841    CON16     1.000000    
    z[2,2]    OBJ       946.526572    CON17     1.000000    
    z[2,3]    OBJ       842.136332    CON18     1.000000    
    z[3,1]    OBJ       533.989516    CON19     1.000000    
    z[3,2]    OBJ       882.249345    CON20     1.000000    
    z[3,3]    OBJ       538.574601    CON21     1.000000    
    z[4,1]    OBJ       705.240441    CON22     1.000000    
    z[4,2]    OBJ       563.260800    CON23     1.000000    
    z[4,3]    OBJ       993.040630    CON24     1.000000    
    MARKER    'MARKER'                 'INTEND'
RHS
    RHS       CON1      -0.000000     CON2      -0.000000   
    RHS       CON3      -0.000000     CON4      -0.000000   
    RHS       CON5      -0.000000     CON6      -0.000000   
    RHS       CON7      -0.000000     CON8      -0.000000   
    RHS       CON9      -0.000000     CON10     -0.000000   
    RHS       CON11     -0.000000     CON12     -0.000000   
    RHS       CON13     1.000000      CON14     1.000000    
    RHS       CON15     1.000000      CON16     1.000000    
    RHS       CON17     1.000000      CON18     1.000000    
    RHS       CON19     1.000000      CON20     1.000000    
    RHS       CON21     1.000000      CON22     1.000000    
    RHS       CON23     1.000000      CON24     1.000000    
BOUNDS
 BV BOUND     u[1,1]  
 BV BOUND     u[1,2]  
 BV BOUND     u[1,3]  
 BV BOUND     u[2,1]  
 BV BOUND     u[2,2]  
 BV BOUND     u[2,3]  
 BV BOUND     y[1,1,1]
 BV BOUND     y[1,1,2]
 BV BOUND     y[1,1,3]
 BV BOUND     y[1,2,1]
 BV BOUND     y[1,2,2]
 BV BOUND     y[1,2,3]
 BV BOUND     y[1,3,1]
 BV BOUND     y[1,3,2]
 BV BOUND     y[1,3,3]
 BV BOUND     y[1,4,1]
 BV BOUND     y[1,4,2]
 BV BOUND     y[1,4,3]
 BV BOUND     y[2,1,1]
 BV BOUND     y[2,1,2]
 BV BOUND     y[2,1,3]
 BV BOUND     y[2,2,1]
 BV BOUND     y[2,2,2]
 BV BOUND     y[2,2,3]
 BV BOUND     y[2,3,1]
 BV BOUND     y[2,3,2]
 BV BOUND     y[2,3,3]
 BV BOUND     y[2,4,1]
 BV BOUND     y[2,4,2]
 BV BOUND     y[2,4,3]
 BV BOUND     z[1,1]  
 BV BOUND     z[1,2]  
 BV BOUND     z[1,3]  
 BV BOUND     z[2,1]  
 BV BOUND     z[2,2]  
 BV BOUND     z[2,3]  
 BV BOUND     z[3,1]  
 BV BOUND     z[3,2]  
 BV BOUND     z[3,3]  
 BV BOUND     z[4,1]  
 BV BOUND     z[4,2]  
 BV BOUND     z[4,3]  
ENDATA
